c smth
s vc 200 140
200
199
198
195
192
190
187
185
184
182
181
180
178
177
176
175
174
172
170
168
167
166
165
163
162
161
160
158
157
153
151
148
146
144
141
140
139
137
136
135
134
133
132
131
130
129
127
126
123
121
120
118
117
115
114
113
112
108
106
104
103
101
100
99
96
94
93
92
91
90
89
87
86
84
82
81
80
79
77
76
75
74
73
72
71
70
68
67
65
63
61
60
59
58
57
56
55
53
52
51
50
49
48
47
46
45
43
42
41
39
37
36
35
34
33
32
31
29
27
26
25
24
21
20
17
16
14
13
12
11
10
9
8
7
6
5
4
3
2
1